c File: instances/36_0.25_1.col
c
c Description: Random graph of size 36 vertices and P(0.25) of edges between any two vertices.
p col 36 630
e 1 9
e 1 20
e 1 21
e 1 27
e 1 28
e 1 30
e 2 4
e 2 12
e 2 14
e 2 19
e 2 25
e 2 33
e 3 8
e 3 14
e 3 18
e 3 20
e 3 23
e 3 24
e 3 25
e 3 30
e 3 31
e 3 34
e 3 35
e 3 36
e 4 15
e 4 18
e 4 19
e 4 22
e 4 23
e 4 31
e 4 32
e 4 34
e 5 6
e 5 9
e 5 10
e 5 12
e 5 16
e 5 18
e 5 21
e 5 31
e 5 32
e 5 33
e 5 34
e 5 35
e 5 36
e 6 8
e 6 14
e 6 19
e 6 25
e 6 27
e 6 32
e 6 33
e 6 35
e 7 15
e 7 20
e 7 23
e 7 24
e 7 28
e 7 36
e 8 11
e 8 21
e 8 24
e 8 25
e 8 27
e 8 30
e 8 31
e 8 32
e 9 16
e 9 21
e 9 22
e 9 24
e 9 31
e 9 33
e 10 14
e 10 16
e 10 20
e 10 25
e 10 26
e 10 28
e 10 33
e 11 14
e 11 18
e 11 19
e 11 20
e 11 22
e 11 25
e 11 29
e 11 30
e 11 32
e 12 19
e 12 22
e 12 25
e 12 29
e 13 15
e 13 18
e 13 22
e 13 24
e 13 25
e 13 29
e 13 34
e 13 35
e 14 16
e 14 20
e 14 27
e 14 34
e 14 35
e 15 18
e 15 22
e 15 27
e 15 29
e 15 32
e 16 21
e 16 23
e 16 28
e 16 31
e 16 33
e 16 34
e 17 18
e 17 21
e 17 22
e 17 26
e 17 34
e 17 36
e 18 21
e 18 29
e 18 36
e 19 22
e 19 23
e 19 24
e 19 36
e 20 26
e 20 27
e 20 31
e 20 34
e 21 24
e 21 26
e 21 27
e 21 28
e 21 29
e 21 35
e 21 36
e 22 24
e 22 30
e 25 26
e 25 30
e 25 32
e 25 33
e 27 29
e 27 30
e 27 31
e 28 29
e 28 31
e 30 35
e 31 35
e 31 36
e 32 34
e 33 35
e 35 36